; benchmark generated from python API
(set-info :status unknown)
(declare-fun DISJ_W_S1_R_S2 () Bool)
(declare-fun W_S1_V4 () Bool)
(declare-fun W_S1_V5 () Bool)
(declare-fun R_S1_V4 () Bool)
(declare-fun R_S1_V5 () Bool)
(declare-fun W_S2_V5 () Bool)
(declare-fun DISJ_W_S2_R_S2 () Bool)
(declare-fun DISJ_W_S2_R_S1 () Bool)
(declare-fun R_E1_V4 () Bool)
(declare-fun R_E1_V5 () Bool)
(declare-fun W_S2_V2 () Bool)
(declare-fun W_S2_V3 () Bool)
(declare-fun W_S2_V1 () Bool)
(declare-fun R_S2_V4 () Bool)
(declare-fun R_S2_V5 () Bool)
(declare-fun R_S2_V2 () Bool)
(declare-fun R_S2_V3 () Bool)
(declare-fun R_S2_V1 () Bool)
(declare-fun R_S1_V2 () Bool)
(declare-fun R_S1_V3 () Bool)
(declare-fun R_S1_V1 () Bool)
(declare-fun R_E1_V2 () Bool)
(declare-fun DISJ_W_S2_R_E1 () Bool)
(declare-fun DISJ_W_S1_W_S2 () Bool)
(declare-fun R_E1_V3 () Bool)
(declare-fun DISJ_W_S1_R_S1 () Bool)
(declare-fun W_S2_V4 () Bool)
(declare-fun W_S1_V3 () Bool)
(declare-fun W_S1_V2 () Bool)
(declare-fun W_S1_V1 () Bool)
(declare-fun R_E1_V1 () Bool)
(declare-fun DISJ_W_S1_R_E1 () Bool)
(assert
 (let (($x2302 (not W_S1_V4)))
 (let (($x1973 (not W_S1_V5)))
 (let (($x5929 (not R_S1_V4)))
 (let (($x4084 (not R_S1_V5)))
 (let (($x3263 (not (and $x4084 $x5929 $x1973 $x2302 DISJ_W_S1_R_S2))))
 (let (($x2100 (not (and $x5929 $x1973 $x2302 (not W_S2_V5) DISJ_W_S1_R_S2))))
 (let (($x4666 (and DISJ_W_S2_R_S1 DISJ_W_S2_R_S2)))
 (let (($x1901 (not $x4666)))
 (let (($x241 (not (and W_S1_V4 R_E1_V4))))
 (let (($x1390 (not (and W_S1_V5 R_E1_V5))))
 (let (($x4869 (forall ((V3_0 Int) )(forall ((V2_0 Int) )(forall ((V5_0 Int) )(forall ((V4_0 Int) )(forall ((MW_S1_V1 Bool) )(forall ((MW_S1_V3 Bool) )(forall ((MW_S1_V2 Bool) )(forall ((MW_S1_V5 Bool) )(forall ((MW_S1_V4 Bool) )(forall ((MW_S2_V1 Bool) )(forall ((MW_S2_V3 Bool) )(forall ((MW_S2_V2 Bool) )(forall ((MW_S2_V5 Bool) )(forall ((MW_S2_V4 Bool) )(forall ((S1_V1_!6442 Int) )(forall ((S1_V1_!6447 Int) )(forall ((S1_V1_!6464 Int) )(forall ((S1_V1_!6474 Int) )(forall ((S2_V5_!6456 Int) )(forall ((S2_V5_!6461 Int) )(forall ((S2_V5_!6472 Int) )(forall ((S2_V5_!6482 Int) )(forall ((S1_V3_!6443 Int) )(forall ((S1_V3_!6448 Int) )(forall ((S1_V3_!6465 Int) )(forall ((S1_V3_!6475 Int) )(forall ((S1_V2_!6444 Int) )(forall ((S1_V2_!6449 Int) )(forall ((S1_V2_!6466 Int) )(forall ((S1_V2_!6476 Int) )(forall ((E1_!6441 Int) )(forall ((E1_!6452 Int) )(forall ((E1_!6463 Int) )(forall ((S2_V4_!6457 Int) )(forall ((S2_V4_!6462 Int) )(forall ((S2_V4_!6473 Int) )(forall ((S2_V4_!6483 Int) )(forall ((S1_V5_!6445 Int) )(forall ((S1_V5_!6450 Int) )(forall ((S1_V5_!6467 Int) )(forall ((S1_V5_!6477 Int) )(forall ((S2_V1_!6453 Int) )(forall ((S2_V1_!6458 Int) )(forall ((S2_V1_!6469 Int) )(forall ((S2_V1_!6479 Int) )(forall ((S1_V4_!6446 Int) )(forall ((S1_V4_!6451 Int) )(forall ((S1_V4_!6468 Int) )(forall ((S1_V4_!6478 Int) )(forall ((S2_V2_!6455 Int) )(forall ((S2_V2_!6460 Int) )(forall ((S2_V2_!6471 Int) )(forall ((S2_V2_!6481 Int) )(forall ((S2_V3_!6454 Int) )(forall ((S2_V3_!6459 Int) )(forall ((S2_V3_!6470 Int) )(forall ((S2_V3_!6480 Int) )(let (($x962 (= (ite MW_S2_V4 S2_V4_!6462 (ite MW_S1_V4 S1_V4_!6451 V4_0)) (ite MW_S2_V4 S2_V4_!6483 (ite MW_S1_V4 S1_V4_!6478 (ite MW_S2_V4 S2_V4_!6473 (ite MW_S1_V4 S1_V4_!6468 V4_0)))))))
 (let (($x83 (= (ite MW_S2_V5 S2_V5_!6461 (ite MW_S1_V5 S1_V5_!6450 V5_0)) (ite MW_S2_V5 S2_V5_!6482 (ite MW_S1_V5 S1_V5_!6477 (ite MW_S2_V5 S2_V5_!6472 (ite MW_S1_V5 S1_V5_!6467 V5_0)))))))
 (let ((?x144 (ite MW_S1_V2 S1_V2_!6466 V2_0)))
 (let ((?x2456 (ite MW_S2_V2 S2_V2_!6471 ?x144)))
 (let ((?x857 (ite MW_S1_V2 S1_V2_!6476 ?x2456)))
 (let ((?x1491 (ite MW_S2_V2 S2_V2_!6481 ?x857)))
 (let ((?x53 (ite MW_S1_V2 S1_V2_!6449 V2_0)))
 (let ((?x329 (ite MW_S2_V2 S2_V2_!6460 ?x53)))
 (let (($x5937 (= (ite MW_S2_V3 S2_V3_!6459 (ite MW_S1_V3 S1_V3_!6448 V3_0)) (ite MW_S2_V3 S2_V3_!6480 (ite MW_S1_V3 S1_V3_!6475 (ite MW_S2_V3 S2_V3_!6470 (ite MW_S1_V3 S1_V3_!6465 V3_0)))))))
 (let ((?x5952 (ite MW_S1_V1 S1_V1_!6464 E1_!6463)))
 (let ((?x5923 (ite MW_S2_V1 S2_V1_!6469 ?x5952)))
 (let ((?x343 (+ 1 ?x5923)))
 (let ((?x5764 (ite MW_S1_V1 S1_V1_!6474 ?x343)))
 (let ((?x1750 (ite MW_S2_V1 S2_V1_!6479 ?x5764)))
 (let ((?x3145 (ite MW_S2_V1 S2_V1_!6453 E1_!6452)))
 (let ((?x318 (+ 1 ?x3145)))
 (let ((?x5960 (ite MW_S2_V1 S2_V1_!6458 ?x318)))
 (let (($x1574 (>= (ite MW_S1_V1 S1_V1_!6447 (+ 1 (ite MW_S1_V1 S1_V1_!6442 E1_!6441))) (+ (- 1) ?x53))))
 (let (($x1802 (and (not (<= V2_0 E1_!6441)) (not (<= (ite MW_S1_V2 S1_V2_!6444 V2_0) (+ 1 (ite MW_S1_V1 S1_V1_!6442 E1_!6441)))) $x1574 (not (<= ?x53 E1_!6452)) (not (<= (ite MW_S2_V2 S2_V2_!6455 ?x53) ?x318)) (>= ?x5960 (+ (- 1) ?x329)) (not (<= V2_0 E1_!6463)) (not (<= ?x2456 ?x343)) (>= ?x1750 (+ (- 1) ?x1491)))))
 (let (($x3132 (= S2_V3_!6470 S2_V3_!6480)))
 (let ((?x6029 (ite MW_S1_V4 S1_V4_!6468 V4_0)))
 (let ((?x1194 (ite MW_S2_V4 S2_V4_!6473 ?x6029)))
 (let ((?x5825 (ite MW_S1_V4 S1_V4_!6478 ?x1194)))
 (let (($x5205 (not R_S2_V4)))
 (let ((?x348 (ite MW_S1_V5 S1_V5_!6467 V5_0)))
 (let ((?x2202 (ite MW_S2_V5 S2_V5_!6472 ?x348)))
 (let ((?x291 (ite MW_S1_V5 S1_V5_!6477 ?x2202)))
 (let (($x5251 (not R_S2_V5)))
 (let ((?x2902 (ite MW_S1_V3 S1_V3_!6465 V3_0)))
 (let ((?x3666 (ite MW_S2_V3 S2_V3_!6470 ?x2902)))
 (let ((?x48 (ite MW_S1_V3 S1_V3_!6475 ?x3666)))
 (let (($x5020 (not R_S2_V3)))
 (let (($x1999 (and (or (not R_S2_V1) (= ?x5952 ?x5764)) (or $x5020 (= ?x2902 ?x48)) (or (not R_S2_V2) (= ?x144 ?x857)) (or $x5251 (= ?x348 ?x291)) (or $x5205 (= ?x6029 ?x5825)))))
 (let (($x5766 (not $x1999)))
 (let (($x922 (= S2_V3_!6470 S2_V3_!6454)))
 (let (($x6079 (and (or (not R_S2_V1) (= ?x5952 E1_!6452)) (or $x5020 (= ?x2902 (ite MW_S1_V3 S1_V3_!6448 V3_0))) (or (not R_S2_V2) (= ?x144 ?x53)) (or $x5251 (= ?x348 (ite MW_S1_V5 S1_V5_!6450 V5_0))) (or $x5205 (= ?x6029 (ite MW_S1_V4 S1_V4_!6451 V4_0))))))
 (let (($x2414 (not $x6079)))
 (let (($x3434 (= S2_V3_!6459 S2_V3_!6480)))
 (let (($x2627 (and (or (not R_S2_V1) (= ?x3145 (+ (- 1) ?x5764))) (or $x5020 (= (ite MW_S2_V3 S2_V3_!6454 (ite MW_S1_V3 S1_V3_!6448 V3_0)) ?x48)) (or (not R_S2_V2) (= (ite MW_S2_V2 S2_V2_!6455 ?x53) ?x857)) (or $x5251 (= (ite MW_S2_V5 S2_V5_!6456 (ite MW_S1_V5 S1_V5_!6450 V5_0)) ?x291)) (or $x5205 (= (ite MW_S2_V4 S2_V4_!6457 (ite MW_S1_V4 S1_V4_!6451 V4_0)) ?x5825)))))
 (let (($x1645 (not $x2627)))
 (let (($x1334 (= S2_V3_!6459 S2_V3_!6470)))
 (let (($x3484 (and (or (not R_S2_V1) (= ?x3145 (+ (- 1) ?x5952))) (or $x5020 (= (ite MW_S2_V3 S2_V3_!6454 (ite MW_S1_V3 S1_V3_!6448 V3_0)) ?x2902)) (or (not R_S2_V2) (= (ite MW_S2_V2 S2_V2_!6455 ?x53) ?x144)) (or $x5251 (= (ite MW_S2_V5 S2_V5_!6456 (ite MW_S1_V5 S1_V5_!6450 V5_0)) ?x348)) (or $x5205 (= (ite MW_S2_V4 S2_V4_!6457 (ite MW_S1_V4 S1_V4_!6451 V4_0)) ?x6029)))))
 (let (($x3000 (not $x3484)))
 (let (($x2232 (= S2_V3_!6459 S2_V3_!6454)))
 (let (($x3110 (or $x5205 (= (ite MW_S2_V4 S2_V4_!6457 (ite MW_S1_V4 S1_V4_!6451 V4_0)) (ite MW_S1_V4 S1_V4_!6451 V4_0)))))
 (let (($x701 (or $x5251 (= (ite MW_S2_V5 S2_V5_!6456 (ite MW_S1_V5 S1_V5_!6450 V5_0)) (ite MW_S1_V5 S1_V5_!6450 V5_0)))))
 (let (($x3655 (or $x5020 (= (ite MW_S2_V3 S2_V3_!6454 (ite MW_S1_V3 S1_V3_!6448 V3_0)) (ite MW_S1_V3 S1_V3_!6448 V3_0)))))
 (let (($x3448 (and (or (not R_S2_V1) (= ?x3145 (+ (- 1) E1_!6452))) $x3655 (or (not R_S2_V2) (= (ite MW_S2_V2 S2_V2_!6455 ?x53) ?x53)) $x701 $x3110)))
 (let (($x2713 (not $x3448)))
 (let (($x2687 (= S2_V3_!6454 S2_V3_!6480)))
 (let (($x850 (and (or (not R_S2_V1) (= E1_!6452 ?x5764)) (or $x5020 (= (ite MW_S1_V3 S1_V3_!6448 V3_0) ?x48)) (or (not R_S2_V2) (= ?x53 ?x857)) (or $x5251 (= (ite MW_S1_V5 S1_V5_!6450 V5_0) ?x291)) (or $x5205 (= (ite MW_S1_V4 S1_V4_!6451 V4_0) ?x5825)))))
 (let (($x2787 (not $x850)))
 (let (($x1209 (= S2_V2_!6481 S2_V2_!6460)))
 (let (($x2728 (and (or (not R_S2_V1) (= ?x5764 ?x318)) (or $x5020 (= ?x48 (ite MW_S2_V3 S2_V3_!6454 (ite MW_S1_V3 S1_V3_!6448 V3_0)))) (or (not R_S2_V2) (= ?x857 (ite MW_S2_V2 S2_V2_!6455 ?x53))) (or $x5251 (= ?x291 (ite MW_S2_V5 S2_V5_!6456 (ite MW_S1_V5 S1_V5_!6450 V5_0)))) (or $x5205 (= ?x5825 (ite MW_S2_V4 S2_V4_!6457 (ite MW_S1_V4 S1_V4_!6451 V4_0)))))))
 (let (($x3373 (= S2_V2_!6481 S2_V2_!6455)))
 (let (($x2804 (and (or (not R_S2_V1) (= ?x5764 E1_!6452)) (or $x5020 (= ?x48 (ite MW_S1_V3 S1_V3_!6448 V3_0))) (or (not R_S2_V2) (= ?x857 ?x53)) (or $x5251 (= ?x291 (ite MW_S1_V5 S1_V5_!6450 V5_0))) (or $x5205 (= ?x5825 (ite MW_S1_V4 S1_V4_!6451 V4_0))))))
 (let (($x4237 (not $x2804)))
 (let (($x1139 (= S2_V2_!6471 S2_V2_!6460)))
 (let (($x2990 (and (or (not R_S2_V1) (= ?x5952 ?x318)) (or $x5020 (= ?x2902 (ite MW_S2_V3 S2_V3_!6454 (ite MW_S1_V3 S1_V3_!6448 V3_0)))) (or (not R_S2_V2) (= ?x144 (ite MW_S2_V2 S2_V2_!6455 ?x53))) (or $x5251 (= ?x348 (ite MW_S2_V5 S2_V5_!6456 (ite MW_S1_V5 S1_V5_!6450 V5_0)))) (or $x5205 (= ?x6029 (ite MW_S2_V4 S2_V4_!6457 (ite MW_S1_V4 S1_V4_!6451 V4_0)))))))
 (let (($x1708 (and (or (not R_S1_V1) (= ?x5923 (ite MW_S1_V1 S1_V1_!6442 E1_!6441))) (or (not R_S1_V3) (= ?x3666 (ite MW_S1_V3 S1_V3_!6443 V3_0))) (or (not R_S1_V2) (= ?x2456 (ite MW_S1_V2 S1_V2_!6444 V2_0))) (or (not R_S1_V5) (= ?x2202 (ite MW_S1_V5 S1_V5_!6445 V5_0))) (or (not R_S1_V4) (= ?x1194 (ite MW_S1_V4 S1_V4_!6446 V4_0))))))
 (let (($x4026 (not $x1708)))
 (let (($x5929 (not R_S1_V4)))
 (let (($x2243 (or $x5929 (= V4_0 ?x1194))))
 (let (($x4084 (not R_S1_V5)))
 (let (($x173 (or $x4084 (= V5_0 ?x2202))))
 (let (($x3305 (not R_S1_V2)))
 (let (($x1760 (or $x3305 (= V2_0 ?x2456))))
 (let (($x3240 (not R_S1_V3)))
 (let (($x3118 (or $x3240 (= V3_0 ?x3666))))
 (let (($x2427 (not (and (or (not R_S1_V1) (= E1_!6463 ?x343)) $x3118 $x1760 $x173 $x2243))))
 (let (($x929 (or $x5929 (= V4_0 (ite MW_S1_V4 S1_V4_!6446 V4_0)))))
 (let (($x3374 (or $x4084 (= V5_0 (ite MW_S1_V5 S1_V5_!6445 V5_0)))))
 (let (($x2835 (or $x3305 (= V2_0 (ite MW_S1_V2 S1_V2_!6444 V2_0)))))
 (let (($x4073 (or $x3240 (= V3_0 (ite MW_S1_V3 S1_V3_!6443 V3_0)))))
 (let (($x3166 (and (or (not R_S1_V1) (= E1_!6463 (+ 1 (ite MW_S1_V1 S1_V1_!6442 E1_!6441)))) $x4073 $x2835 $x3374 $x929)))
 (let (($x555 (not $x3166)))
 (let (($x2485 (not (and (or (not R_S1_V1) (= E1_!6441 ?x343)) $x3118 $x1760 $x173 $x2243))))
 (let (($x4811 (and (or (not R_S1_V1) (= E1_!6441 (+ 1 (ite MW_S1_V1 S1_V1_!6442 E1_!6441)))) $x4073 $x2835 $x3374 $x929)))
 (let (($x126 (not $x4811)))
 (let (($x2662 (or $x5929 (= ?x1194 V4_0))))
 (let (($x1485 (or $x4084 (= ?x2202 V5_0))))
 (let (($x876 (or $x3305 (= ?x2456 V2_0))))
 (let (($x614 (or $x3240 (= ?x3666 V3_0))))
 (let (($x2072 (and (or (not R_S1_V1) (= ?x5923 (+ (- 1) E1_!6463))) $x614 $x876 $x1485 $x2662)))
 (let (($x3042 (not $x2072)))
 (let (($x4698 (and (or (not R_S1_V1) (= ?x5923 (+ (- 1) E1_!6441))) $x614 $x876 $x1485 $x2662)))
 (let (($x5485 (not $x4698)))
 (let (($x631 (= S2_V4_!6483 S2_V4_!6473)))
 (let (($x5771 (and (or (not R_S2_V1) (= ?x5764 ?x5952)) (or $x5020 (= ?x48 ?x2902)) (or (not R_S2_V2) (= ?x857 ?x144)) (or $x5251 (= ?x291 ?x348)) (or $x5205 (= ?x5825 ?x6029)))))
 (let (($x5780 (= E1_!6452 E1_!6463)))
 (let (($x3386 (and (or (not R_E1_V2) (= ?x53 V2_0)) (or (not R_E1_V5) (= (ite MW_S1_V5 S1_V5_!6450 V5_0) V5_0)) (or (not R_E1_V4) (= (ite MW_S1_V4 S1_V4_!6451 V4_0) V4_0)))))
 (let (($x2076 (= E1_!6441 E1_!6463)))
 (let (($x3184 (and (or (not R_E1_V2) (= V2_0 ?x53)) (or (not R_E1_V5) (= V5_0 (ite MW_S1_V5 S1_V5_!6450 V5_0))) (or (not R_E1_V4) (= V4_0 (ite MW_S1_V4 S1_V4_!6451 V4_0))))))
 (let (($x2411 (= S1_V2_!6449 S1_V2_!6476)))
 (let (($x1033 (and (or (not R_S1_V1) (= (ite MW_S1_V1 S1_V1_!6442 E1_!6441) ?x5923)) (or $x3240 (= (ite MW_S1_V3 S1_V3_!6443 V3_0) ?x3666)) (or $x3305 (= (ite MW_S1_V2 S1_V2_!6444 V2_0) ?x2456)) (or $x4084 (= (ite MW_S1_V5 S1_V5_!6445 V5_0) ?x2202)) (or $x5929 (= (ite MW_S1_V4 S1_V4_!6446 V4_0) ?x1194)))))
 (let (($x1403 (not $x1033)))
 (let (($x3270 (or $x5929 (= (ite MW_S1_V4 S1_V4_!6446 V4_0) V4_0))))
 (let (($x3310 (or $x4084 (= (ite MW_S1_V5 S1_V5_!6445 V5_0) V5_0))))
 (let (($x2933 (or $x3305 (= (ite MW_S1_V2 S1_V2_!6444 V2_0) V2_0))))
 (let (($x2966 (or $x3240 (= (ite MW_S1_V3 S1_V3_!6443 V3_0) V3_0))))
 (let (($x3322 (and (or (not R_S1_V1) (= (ite MW_S1_V1 S1_V1_!6442 E1_!6441) (+ (- 1) E1_!6463))) $x2966 $x2933 $x3310 $x3270)))
 (let (($x1801 (not $x3322)))
 (let (($x5201 (and (or (not R_S1_V1) (= (ite MW_S1_V1 S1_V1_!6442 E1_!6441) (+ (- 1) E1_!6441))) $x2966 $x2933 $x3310 $x3270)))
 (let (($x1275 (not $x5201)))
 (let (($x812 (and (or (not R_S2_V1) (= E1_!6452 ?x5952)) (or $x5020 (= (ite MW_S1_V3 S1_V3_!6448 V3_0) ?x2902)) (or (not R_S2_V2) (= ?x53 ?x144)) (or $x5251 (= (ite MW_S1_V5 S1_V5_!6450 V5_0) ?x348)) (or $x5205 (= (ite MW_S1_V4 S1_V4_!6451 V4_0) ?x6029)))))
 (let (($x1161 (and (or (not (or (not R_S1_V1) $x2076)) (= S1_V1_!6442 S1_V1_!6464)) (or $x1275 (= S1_V1_!6447 S1_V1_!6442)) (or $x1801 (= S1_V1_!6447 S1_V1_!6464)) (or $x5485 (= S1_V1_!6474 S1_V1_!6442)) (or $x4026 (= S1_V1_!6474 S1_V1_!6447)) (or $x3042 (= S1_V1_!6474 S1_V1_!6464)) (or (not $x812) (= S2_V5_!6456 S2_V5_!6472)) (or $x2787 (= S2_V5_!6456 S2_V5_!6482)) (or $x2713 (= S2_V5_!6461 S2_V5_!6456)) (or $x3000 (= S2_V5_!6461 S2_V5_!6472)) (or $x1645 (= S2_V5_!6461 S2_V5_!6482)) (or $x5766 (= S2_V5_!6472 S2_V5_!6482)) (or (not (or (not R_S1_V1) $x2076)) (= S1_V3_!6443 S1_V3_!6465)) (or $x2485 (= S1_V3_!6443 S1_V3_!6475)) (or $x1275 (= S1_V3_!6448 S1_V3_!6443)) (or $x1801 (= S1_V3_!6448 S1_V3_!6465)) (or $x1403 (= S1_V3_!6448 S1_V3_!6475)) (or $x2427 (= S1_V3_!6465 S1_V3_!6475)) (or (not (or (not R_S1_V1) $x2076)) (= S1_V2_!6444 S1_V2_!6466)) (or $x1275 (= S1_V2_!6449 S1_V2_!6444)) (or $x1801 (= S1_V2_!6449 S1_V2_!6466)) (or $x1403 $x2411) (or $x5485 (= S1_V2_!6476 S1_V2_!6444)) (or $x3042 (= S1_V2_!6476 S1_V2_!6466)) (or (not $x3184) (= E1_!6441 E1_!6452)) $x2076 (or (not $x3386) $x5780) (or $x2713 (= S2_V4_!6462 S2_V4_!6457)) (or $x3000 (= S2_V4_!6462 S2_V4_!6473)) (or $x1645 (= S2_V4_!6462 S2_V4_!6483)) (or $x2414 (= S2_V4_!6473 S2_V4_!6457)) (or $x4237 (= S2_V4_!6483 S2_V4_!6457)) (or (not $x5771) $x631) (or $x126 (= S1_V5_!6445 S1_V5_!6450)) (or (not (or (not R_S1_V1) (= E1_!6463 E1_!6441))) (= S1_V5_!6467 S1_V5_!6445)) (or $x555 (= S1_V5_!6467 S1_V5_!6450)) (or $x5485 (= S1_V5_!6477 S1_V5_!6445)) (or $x4026 (= S1_V5_!6477 S1_V5_!6450)) (or $x3042 (= S1_V5_!6477 S1_V5_!6467)) (or $x2713 (= S2_V1_!6458 S2_V1_!6453)) (or $x3000 (= S2_V1_!6458 S2_V1_!6469)) (or $x1645 (= S2_V1_!6458 S2_V1_!6479)) (or $x2414 (= S2_V1_!6469 S2_V1_!6453)) (or $x5766 (= S2_V1_!6469 S2_V1_!6479)) (or $x4237 (= S2_V1_!6479 S2_V1_!6453)) (or $x126 (= S1_V4_!6446 S1_V4_!6451)) (or $x2485 (= S1_V4_!6446 S1_V4_!6478)) (or (not (or (not R_S1_V1) (= E1_!6463 E1_!6441))) (= S1_V4_!6468 S1_V4_!6446)) (or $x555 (= S1_V4_!6468 S1_V4_!6451)) (or $x2427 (= S1_V4_!6468 S1_V4_!6478)) (or $x4026 (= S1_V4_!6478 S1_V4_!6451)) (or $x2713 (= S2_V2_!6460 S2_V2_!6455)) (or $x2414 (= S2_V2_!6471 S2_V2_!6455)) (or (not $x2990) $x1139) (or $x5766 (= S2_V2_!6471 S2_V2_!6481)) (or $x4237 $x3373) (or (not $x2728) $x1209) (or $x2787 $x2687) (or $x2713 $x2232) (or $x3000 $x1334) (or $x1645 $x3434) (or $x2414 $x922) (or $x5766 $x3132) (not MW_S1_V1) (not MW_S1_V2) (or (not MW_S1_V5) W_S1_V5) (or (not MW_S1_V4) W_S1_V4) (or (not MW_S2_V1) W_S2_V1) (or (not MW_S2_V3) W_S2_V3) (or (not MW_S2_V2) W_S2_V2) (or (not MW_S2_V5) W_S2_V5))))
 (or (not $x1161) (not $x1802) (and (= ?x5960 ?x1750) $x5937 (= ?x329 ?x1491) $x83 $x962)))))))))))))))))))))))))))))))))))))))))))))))))))))))))))))))))))))))))))))))))))))))))))))))))))))))))))))
 )
 )
 )
 )
 )
 )
 )
 )
 )
 )
 )
 )
 )
 )
 )
 )
 )
 )
 )
 )
 )
 )
 )
 )
 )
 )
 )
 )
 )
 )
 )
 )
 )
 )
 )
 )
 )
 )
 )
 )
 )
 )
 )
 )
 )
 )
 )
 )
 )
 )
 )
 )
 )
 )
 )
 )
 ))
 (let (($x2893 (not (or (and W_S2_V2 R_E1_V2) (and W_S2_V5 R_E1_V5) R_E1_V4))))
 (let (($x3380 (= DISJ_W_S2_R_E1 $x2893)))
 (let (($x2914 (and W_S2_V5 R_S2_V5)))
 (let (($x5758 (and W_S2_V2 R_S2_V2)))
 (let (($x1689 (and W_S2_V3 R_S2_V3)))
 (let (($x1288 (and W_S2_V1 R_S2_V1)))
 (let (($x1721 (= DISJ_W_S2_R_S2 (not (or $x1288 $x1689 $x5758 $x2914 R_S2_V4)))))
 (let (($x1882 (and W_S2_V5 R_S1_V5)))
 (let (($x6073 (and W_S2_V2 R_S1_V2)))
 (let (($x5839 (and W_S2_V3 R_S1_V3)))
 (let (($x24 (and W_S2_V1 R_S1_V1)))
 (let (($x717 (= DISJ_W_S2_R_S1 (not (or $x24 $x5839 $x6073 $x1882 R_S1_V4)))))
 (let (($x2021 (= DISJ_W_S1_W_S2 (not (or W_S2_V3 (and W_S1_V5 W_S2_V5) W_S1_V4)))))
 (let (($x3560 (not R_E1_V3)))
 (let (($x3840 (not (or R_S2_V3 (and W_S1_V5 R_S2_V5) (and W_S1_V4 R_S2_V4)))))
 (let (($x1332 (= DISJ_W_S1_R_S2 $x3840)))
 (let (($x5966 (not (or R_S1_V3 (and W_S1_V5 R_S1_V5) (and W_S1_V4 R_S1_V4)))))
 (let (($x5866 (= DISJ_W_S1_R_S1 $x5966)))
 (let (($x3313 (not W_S2_V3)))
 (let (($x2031 (not W_S2_V2)))
 (let (($x5205 (not R_S2_V4)))
 (let (($x355 (not R_S2_V1)))
 (let (($x5701 (and $x355 $x5205 $x2031 $x3313 DISJ_W_S2_R_S1)))
 (let (($x5251 (not R_S2_V5)))
 (let (($x2870 (and $x5251 $x5205 $x3313 DISJ_W_S2_R_S1)))
 (let (($x2432 (and $x5205 $x1973 $x3313 DISJ_W_S2_R_S1)))
 (let (($x5285 (and $x355 $x5251 $x2031 $x3313 DISJ_W_S2_R_S1)))
 (let (($x5812 (and $x5251 $x2302 $x3313 DISJ_W_S2_R_S1)))
 (let (($x5922 (not W_S2_V5)))
 (let (($x5438 (and $x355 $x2031 $x5922 $x3313 DISJ_W_S2_R_S1)))
 (let (($x1773 (and DISJ_W_S1_W_S2 DISJ_W_S2_R_S1)))
 (let (($x5020 (not R_S2_V3)))
 (let (($x2543 (and $x355 $x5020 $x5251 $x2031 DISJ_W_S2_R_S1)))
 (let (($x2162 (and $x355 $x5020 $x5205 $x2031 DISJ_W_S2_R_S1)))
 (let (($x1364 (and $x355 $x5205 $x2031 $x5922 DISJ_W_S2_R_S1)))
 (let (($x123 (and $x355 $x5251 $x5205 $x2031 DISJ_W_S2_R_S1)))
 (let (($x3163 (and $x355 $x5020 $x2031 $x5922 DISJ_W_S2_R_S1)))
 (let (($x2221 (and (not W_S2_V1) $x2031)))
 (let (($x2373 (and $x5020 $x5205 $x5922 DISJ_W_S2_R_S1)))
 (let (($x839 (and $x5205 $x5922 $x3313 DISJ_W_S2_R_S1)))
 (let (($x6005 (and $x5020 $x2302 $x5922 DISJ_W_S2_R_S1)))
 (let (($x240 (and DISJ_W_S1_R_S2 DISJ_W_S2_R_S1)))
 (let (($x1616 (and $x2031 DISJ_W_S2_R_S2)))
 (let (($x1809 (or $x4666 $x1616 $x240 $x6005 $x839 $x2373 $x2221 $x3163 $x123 $x1364 $x2162 $x2543 $x1773 $x5438 $x5812 $x5285 $x2432 $x2870 $x5701)))
 (let (($x1443 (not R_S1_V1)))
 (let (($x2731 (and $x1443 DISJ_W_S1_R_S1)))
 (let (($x5211 (and $x2031 DISJ_W_S2_R_S1 DISJ_W_S1_R_S1)))
 (let (($x231 (or $x5211 $x2221 $x2731)))
 (let (($x1369 (not W_S1_V2)))
 (let (($x4827 (not W_S1_V1)))
 (let (($x1152 (not R_E1_V1)))
 (let (($x972 (and DISJ_W_S1_R_E1 $x1152 $x4827 $x1369 $x231 $x1809 W_S1_V3 W_S2_V4 $x5866 $x1332 $x3560 $x2021 $x717 $x1721 $x3380 $x4869 $x1390 $x241)))
 (and $x972 $x1901 $x2100 $x3263)))))))))))))))))))))))))))))))))))))))))))))))))))))))))))))))))
(check-sat)
